28
CCOC(=O)/C=C(\C)c1ccccc1 react
C         4.47159519242767   -0.20411778841677   -0.68365763168093
C         3.80884508845672   -0.34524290379932    0.67637432693597
O         2.40301989191933   -0.31552778986229    0.57283303868308
C         1.92408482235708    0.85988333407219    0.31663099393427
O         2.60889158836469    1.86950725438374    0.17166821179637
C         0.46137380875058    0.91980832566517    0.22739923151164
C        -0.39609900695700   -0.09855595427907    0.08455515932649
C         0.06512336870555   -1.52583620391975    0.00049203077122
C        -1.84922048632337    0.11814682617573    0.02326610408958
C        -2.73364814176042   -0.88774573347119    0.41413136543201
C        -4.10071646527464   -0.68283562270110    0.38246058501360
C        -4.61524781883481    0.53001576186338   -0.04536035459672
C        -3.75030830892642    1.53718808575570   -0.44172921426593
C        -2.38381730694705    1.33247146968991   -0.40828704501491
H         5.54385405287116   -0.36568217882530   -0.59753453241148
H         4.05424293981042   -0.93589161289716   -1.37274520138145
H         4.29257168541421    0.79658141779832   -1.07269529369836
H         4.17795817867498    0.44183303004435    1.34273100206375
H         4.05689738736942   -1.31660659106617    1.10723825076015
H         0.08085648318719    1.93778898957084    0.26965984832580
H         1.08595611119223   -1.57515309836148   -0.37975703966798
H         0.05073538632856   -1.97705605665040    0.99342530317708
H        -0.59001178420655   -2.10161761357656   -0.65163853085967
H        -2.34585824972662   -1.83643040298202    0.76370609534203
H        -4.77139597160573   -1.47519295280941    0.69538744033601
H        -5.68690445184955    0.68956086558814   -0.07088088124121
H        -4.14571403727298    2.48800861371083   -0.78110636886200
H        -1.71706195614306    2.12269852930062   -0.73309489381878