64
CC(C)C[C@H]1COC(C2=CCC[C@@]23CCC=C3P(c2ccccc2)8->c2ccccc2)=N9->1.[Ir+]89 cat
C         4.47515652256355   -2.18937330041323   -0.17286994583876
C         2.97008418733244   -2.07501187713838   -0.30680339312749
C         2.33428677130873   -3.45314669736140   -0.33332772849498
C         2.56460746459880   -1.28089572504893   -1.54746148307490
C         2.88026800735523    0.19703886899888   -1.42900981451611
C         2.45167968431330    1.04470254058095   -2.62832813965785
O         1.63274432726592    2.08657259837830   -2.10066512794866
C         1.48444119948579    1.89147238133790   -0.87499419062099
C         0.71120185392011    2.74221815306338    0.01421018863713
C         1.20054932769951    3.43585966303653    1.03428350060124
C         0.12484782504580    4.16505059166755    1.79418964942966
C        -1.16223296914432    3.49097286837042    1.29552640812246
C        -0.79495138868978    2.84878607856592   -0.06131696470280
C        -1.29520633007288    3.66769260735995   -1.26457743120168
C        -2.66586075892890    3.05747519025173   -1.59705962013382
C        -2.54816345075755    1.65685085899859   -1.05645439114754
C        -1.50731896568253    1.51660232202528   -0.23999370826048
P        -0.81166385486769    0.01931781915135    0.49349107770292
C        -1.34417388396289   -1.28493620223430   -0.67708148621988
C        -1.68109631413228   -2.55806093956713   -0.21918054776543
C        -2.04533489643703   -3.55650440748663   -1.10413694038762
C        -2.07093699183773   -3.30019574391215   -2.46571398154173
C        -1.71542354068024   -2.04652459121020   -2.93870332731360
C        -1.34487225376581   -1.05267298614013   -2.05222238853247
C        -1.56142940243080   -0.47620638415547    2.07943894395255
C        -0.58014026499039   -1.02741148962681    2.90546822990156
C        -0.86418563382405   -1.51467924746854    4.15568666371247
C        -2.17843668298835   -1.44728511722928    4.60439299263323
C        -3.16943809978265   -0.89247109944276    3.81181127714380
C        -2.86441249993059   -0.40684174835884    2.54938179450775
N         2.10878108921341    0.81154382322863   -0.34096727967831
Ir        1.31340288146511   -0.26041855541043    1.18042018605197
H         4.73529083301939   -2.72094504973549    0.74154843376845
H         4.94360917201558   -1.20751203798363   -0.15298061607466
H         4.86378904210280   -2.74725887574648   -1.02483793521448
H         2.56278356191295   -1.53441302068674    0.60933061211290
H         2.69006864947737   -3.99477329684158   -1.21131963485535
H         2.60547310657121   -4.01436616050536    0.55968817226742
H         1.24792303486318   -3.36941509792590   -0.38757159387884
H         1.48778495959540   -1.39316280635882   -1.70798386706159
H         3.09075515736222   -1.69325563234556   -2.41037585480110
H         3.94241489914277    0.32279895693294   -1.21492716741824
H         1.85704863434395    0.47197806530777   -3.34460950704330
H         3.29682060748592    1.50580571188588   -3.13953048272333
H         2.24435059594100    3.54188451123279    1.29520313867665
H         0.24799843830821    4.07413336054979    2.87341840134404
H         0.13731409031585    5.22635724669709    1.53187854012278
H        -1.98609652991630    4.19478121207934    1.19793755669002
H        -1.45102206653088    2.70210436939859    1.99231420956925
H        -1.35735619365926    4.72951909449922   -1.03806333440858
H        -0.61384134954031    3.51808573323695   -2.10528342498924
H        -2.87671412484243    3.06581534279308   -2.66605792148966
H        -3.46603365783726    3.59228103383659   -1.08022498934175
H        -3.25989272186591    0.89152612664332   -1.33167478915939
H        -1.66166157420881   -2.76070082902757    0.84666019709101
H        -2.31295979236870   -4.53942006212420   -0.73099069123997
H        -2.36583638374125   -4.07932290781912   -3.15947546415500
H        -1.72760370268080   -1.84456411957205   -4.00445054166217
H        -1.06096799704683   -0.07416432566859   -2.42498878869914
H         0.48728263433492   -1.08643790154807    2.49625587426298
H        -0.09563768901955   -1.94425639633135    4.78708579803152
H        -2.42510908034108   -1.83282478880261    5.58769046231075
H        -4.18803245876168   -0.84023316281033    4.18153258822775
H        -3.63871305308695    0.03043645394036    1.92737059749656
