65
C1=C(C2=N9->[C@@H](Cc3ccccc3)CO2)[C@@]2(CC1)CCC=C2P(c1ccccc1)8->c1ccccc1.[Ir+]89 cat
C        -0.09023231622948   -2.55152508820969   -2.28929698656005
C         0.18030921886764   -2.22726324062553   -1.03461452276788
C         1.39493555740113   -1.59414712098483   -0.54513274545963
N         1.65555128152393   -0.27266496222554   -0.78639810809635
C         2.99357865601507   -0.02755094742132   -0.21966834048852
C         2.83050023309181    1.15069076867136    0.73691133156235
C         4.10453862355161    1.89756403126662    0.93679655908648
C         4.90068140802569    1.64288056179086    2.04634353265691
C         6.11721423198372    2.28683775279297    2.20023574413045
C         6.54707012899114    3.19579744672544    1.24528243849898
C         5.75664365667786    3.45739420762173    0.13624027357435
C         4.54323055716768    2.80801304867712   -0.01599240204847
C         3.33922591393150   -1.36911155005699    0.41957719535670
O         2.25877798368655   -2.23490570877546    0.08322323685958
C        -0.95054767501827   -2.58607163558127   -0.09515315031717
C        -2.02831972339625   -3.19040924128652   -1.02803955376930
C        -1.42638380286656   -3.22120703016800   -2.44617422611391
C        -0.52355980414259   -3.53276261685787    1.04190649412401
C        -1.36908435644856   -3.10580823387889    2.25179636167543
C        -1.72086467303830   -1.67695878602374    1.92941665070168
C        -1.49167570584247   -1.37497724016253    0.65552151979721
P        -1.48324785545955    0.24295099212308   -0.15217344337313
C        -2.30761656698233    1.44886791116167    0.93793950314936
C        -3.54003970513236    1.44512660641012    1.57707078475123
C        -3.91480690347286    2.51984427451660    2.36841371781941
C        -3.06131292424950    3.59808931422684    2.53059805898127
C        -1.81567527702990    3.61559137859448    1.91288407875900
C        -1.46484715543226    2.54545812848634    1.12810573530938
C        -2.50427845988524    0.07825043140189   -1.65437167894548
C        -3.85722604817241   -0.25051410577899   -1.59971763745715
C        -4.60286768451264   -0.35380348023130   -2.76016151487354
C        -4.00413218382444   -0.13357105480620   -3.99161519805126
C        -2.65978256664686    0.19621688662933   -4.06077319329548
C        -1.91857613141078    0.30598814816421   -2.89746852441788
Ir        0.51547536450596    1.25284947050981   -0.06692877598130
H         0.55702323539935   -2.40171306625999   -3.14273981051488
H         3.68167980766287    0.23831939625588   -1.02212805039114
H         2.43391743937497    0.79803059021217    1.69515057485650
H         2.09581308116296    1.89673520916356    0.24993463946887
H         4.56031005577860    0.93307229432593    2.79385086220474
H         6.73287340662834    2.08138262730903    3.07032705967084
H         7.49869680619926    3.70191880322554    1.36687112099646
H         6.08637998799524    4.17195709077891   -0.61136213910996
H         3.91880341315382    3.01207210288121   -0.88130103383531
H         4.25591774130287   -1.80966798072018    0.02415551270878
H         3.40049351452029   -1.30700215194848    1.50937754321775
H        -2.29964882236682   -4.19259663124390   -0.69871963846280
H        -2.92406857816734   -2.57031088469204   -1.00985761347268
H        -2.05272732947465   -2.68819049755520   -3.16339196234987
H        -1.29968482615134   -4.24552970236458   -2.80350466830471
H         0.53572228957582   -3.37440079894005    1.25723541770560
H        -0.67758141391886   -4.57727699238113    0.78162001569232
H        -0.82245601818660   -3.19122687316605    3.19019949358659
H        -2.27737780527787   -3.70799277147351    2.32419470574687
H        -2.12456777250170   -1.01511922687463    2.68243560270349
H        -4.20556694050344    0.59721238540390    1.45518769476952
H        -4.88184727147835    2.51778098118733    2.86136954058154
H        -3.36245958648255    4.43740832157314    3.14801111469187
H        -1.15054820570961    4.45934502906537    2.05098369510675
H        -0.45757534337738    2.55211356570037    0.58499753554350
H        -4.32157611327870   -0.42339488305580   -0.63490034094447
H        -5.65684998764747   -0.60608375141223   -2.70829254151937
H        -4.58958159341129   -0.21636819775422   -4.90113713118089
H        -2.19183620168993    0.37151373853120   -5.02387289175708
H        -0.86432926538870    0.57284895750091   -2.93928152221557
