30
CON(C)C(=O)/C=C(\C)c1ccccc1 react
C         3.11325013447686    1.88447327585629    0.75785072636443
O         2.70305733132799    1.21286854972352   -0.41929244832184
N         2.87740765700889   -0.14260199768599   -0.25320230354867
C         4.17564477548891   -0.63406237243543   -0.63807924669439
C         1.80262320111403   -0.95571926101150   -0.35353100345769
O         1.96096688646462   -2.16330061663655   -0.50197175268247
C         0.50562318549589   -0.29850457738198   -0.20683618934308
C        -0.69367458351528   -0.89400248314672   -0.26953822648361
C        -0.84975617277090   -2.37695474540910   -0.44796661639676
C        -1.94202187087894   -0.12977095443733   -0.12488705016619
C        -1.99638940066848    1.23123536641645   -0.42929028727516
C        -3.16924203271903    1.94772254681789   -0.28408394663117
C        -4.31834429109222    1.31988151591887    0.17004206462460
C        -4.28290330686638   -0.03153222767093    0.47270510818491
C        -3.11018499256064   -0.74851751778470    0.32262962332958
H         4.18176855991832    1.74971908906641    0.96301835122405
H         2.53666565879664    1.56611893605906    1.63403052644475
H         2.91790549172132    2.94039205524073    0.56475570294563
H         4.94736607954395   -0.04184349968272   -0.14686406862081
H         4.31413939526963   -0.57843089835647   -1.72337080770097
H         4.25508081006152   -1.67383738049755   -0.31652577372575
H         0.56147281218434    0.77605845811260   -0.05753801119910
H        -1.11083765789416   -2.83186587150030    0.50669447105612
H         0.08029057732822   -2.82090811092516   -0.80045442757547
H        -1.64779333499331   -2.59034968058019   -1.15774385839593
H        -1.10834825880958    1.73140474240122   -0.79843667025811
H        -3.19093069676075    3.00398808639321   -0.52902894363151
H        -5.23815954339261    1.88138959311426    0.28527172152834
H        -5.17734849475752   -0.53083833757922    0.82849050692027
H        -3.09732691852121   -1.80221168240086    0.57302282948529
