64
CC(C)(C)[C@H]1COC(C2=CCC[C@@]23CCC=C3P(c2ccccc2)8->c2ccccc2)=N9->1.[Ir+]89 cat
C         3.19453484981582    0.78730293560036    2.57517336942595
C         3.76494071093542    0.07110412411108    1.36713393658666
C         3.33635307411256   -1.38912397147111    1.40259043913007
C         5.28394658472272    0.18293229258164    1.42403525146296
C         3.24207090890123    0.75511269730739    0.10610312606846
C         3.84011694351247    0.28881572759400   -1.21523039405387
O         2.73517707361606   -0.10447448769130   -2.01676068586203
C         1.66845777136263   -0.00865807818127   -1.33154045990579
C         0.44494857423731   -0.32789521445135   -2.05733496216940
C         0.21267586493951    0.20951158164385   -3.25150630365255
C        -1.02758498648818   -0.32035600228057   -3.90890851702373
C        -1.67803345212953   -1.16816553989598   -2.80509735673897
C        -0.58957983469129   -1.38231820096028   -1.72439858781707
C        -0.01666279443858   -2.81522505302580   -1.78082675558312
C        -0.90985253353128   -3.61839861492787   -0.82257766688400
C        -1.39845015003591   -2.56158744254663    0.13431637601919
C        -1.21033147564955   -1.33233202809526   -0.33911826786343
P        -1.28617953987297    0.24310591763126    0.51982813608227
C        -2.30137027546006    0.13981807559260    2.02435264346955
C        -3.63056732085710   -0.19373765715781    2.23947574212651
C        -4.15682416371694   -0.14767953669162    3.52186362344322
C        -3.36284673101321    0.23095554996274    4.59022519965633
C        -2.02384718200911    0.55475032740697    4.39933005849114
C        -1.52130305098267    0.50084491596175    3.12558571432052
C        -2.02552957445989    1.45774396195195   -0.61576957408315
C        -1.23776773329393    2.52841787962979   -1.03150909305415
C        -1.73116610072229    3.47290276327907   -1.91156737482701
C        -3.02982690180393    3.35951384050862   -2.38226038822826
C        -3.83091085722664    2.30850171040022   -1.96448468547423
C        -3.33281294698887    1.36355810667605   -1.08496122408730
N         1.81080098089699    0.45118947369901   -0.08227392792685
Ir        0.64631516170625    0.64992876048576    1.56119635844164
H         2.05490134319762    0.77455243523040    2.54457792582015
H         3.51101968374046    1.82807631557661    2.60111420964199
H         3.47639834546317    0.28979131513140    3.50071283388168
H         3.66012694965702   -1.91306654663676    0.50374212439095
H         3.76194690862758   -1.88382508977342    2.27456290813422
H         2.23835203958406   -1.44195012557546    1.47338529159568
H         5.64392082524560   -0.19975123060464    2.37817661780850
H         5.74312396311196   -0.39516565974802    0.62391198002741
H         5.58379674953427    1.22621048242402    1.32862242685788
H         3.35747026653735    1.83459013146422    0.23082221786096
H         4.49555191636177   -0.57651415645219   -1.09150575125611
H         4.37979086563760    1.08009808749560   -1.73657439771797
H         0.83196258885617    0.94823734268594   -3.74217193563615
H        -1.68592536184052    0.47699583496546   -4.25413891341239
H        -0.75427526867880   -0.93399463589066   -4.77017815626822
H        -2.04069818007992   -2.11943205032922   -3.18791984238566
H        -2.51785023314575   -0.62656003121076   -2.37159494421411
H         1.00801799153718   -2.81244218938625   -1.40674654549095
H        -0.02615799302802   -3.21759755958516   -2.79125810335136
H        -0.36468530553182   -4.41284730435346   -0.31495005919897
H        -1.75297693060892   -4.06005555249308   -1.35769980538555
H        -1.85140304894396   -2.82284097456658    1.08016825125929
H        -4.25392991334732   -0.49113439731808    1.40280950932281
H        -5.19849641175808   -0.40367542651152    3.68762179746021
H        -3.78570842819440    0.27390164817757    5.58771485056218
H        -1.40700261654436    0.84182956140592    5.24143134559491
H        -0.42722815187591    0.77733942251755    2.93769083610222
H        -0.22127709768065    2.60727335875724   -0.64771761950030
H        -1.10653010124596    4.29972258933917   -2.23104559372447
H        -3.42182643298778    4.09651845137044   -3.07463428161727
H        -4.84964404726910    2.22742664446243   -2.32813905639710
H        -3.95965680772708    0.54222949479273   -0.75587287024783
