22
C[C@@H](CO)c1ccc(Cl)cc1 prod
C        -1.91512312853455    1.43736682029389    0.28947563055829
C        -1.27943740921473    0.14099106740979    0.77988110591378
C        -1.97636378476834   -1.03554808357471    0.07993996527107
O        -1.89475745989267   -0.90029084395895   -1.32072127514501
C         0.19662944899370    0.06773023918937    0.49130894865214
C         0.73570389694830    0.57483771109924   -0.68489015133909
C         2.08858260995089    0.44718927218151   -0.96039790750606
C         2.91697518078844   -0.19623913299329   -0.05669086726063
Cl        4.61901270523213   -0.35035616242896   -0.39397793147123
C         2.39391732447810   -0.71604447859253    1.11768966607157
C         1.04169460626160   -0.58452993099463    1.38269332722083
H        -1.33163103874810    2.29974371882808    0.60785589251104
H        -1.96455138144505    1.41854653621563   -0.80009181302908
H        -2.92808223276813    1.52516001723408    0.68243045871597
H        -1.43178716181806    0.04625184681480    1.85550067903810
H        -1.53725688635746   -1.97989233524136    0.42665620664516
H        -3.04162859333033   -1.02378612856970    0.32337010022298
H        -0.96034071207553   -0.89214433513618   -1.55877781812996
H         0.09728233857179    1.08660601936434   -1.39516511025777
H         2.49724942343320    0.85034932353743   -1.88012878166303
H         3.04403667870855   -1.22299972563366    1.82179195496948
H         0.62987557558635   -0.99294141504426    2.30026072001139
