78
C[C@@H]1OC=N9->[C@@H]1C(Cc1ccccc1)(Cc1ccccc1)OP(C1CCCCC1)8->C1CCCCC1.[Ir+]89 cat
C         4.23427114415435    0.18084157416926   -0.43639208911815
C         3.35762702302206   -0.18762866782074    0.74170297894639
O         3.74273629047231   -1.50412641637703    1.12831913831077
C         2.70414646312341   -2.17112053747476    1.33547061008541
N         1.53516027204895   -1.57867501105126    1.12943858820868
C         1.81014100814348   -0.21362762616937    0.64276877069291
C         1.00410588291461    0.07873302978728   -0.63686040088043
C         0.90977410886615   -1.08799850779839   -1.62431772216904
C         2.15628810094114   -1.48323002200670   -2.35097807877357
C         2.56860709884896   -0.78740629637450   -3.48064428953024
C         3.72163706792718   -1.15722083117602   -4.15254596208603
C         4.47111447951907   -2.23305405067138   -3.70596389728641
C         4.05510341819540   -2.94757849789704   -2.59351796107149
C         2.90112209729373   -2.57649670752716   -1.92612481426995
C         1.41681640047839    1.36815993422002   -1.35146300316855
C         1.13670028066081    2.58746610563838   -0.51649625542561
C        -0.01746629832029    3.32449740443250   -0.74661587744250
C        -0.31326277169438    4.43725343825289    0.02281393431960
C         0.54359133054188    4.82133406427605    1.04176902603886
C         1.69930886523475    4.09459035235838    1.27606150173457
C         1.99452920718657    2.98717250569049    0.49845424403661
O        -0.33655641740747    0.37667057161996   -0.23121879137281
P        -1.20918241917954   -0.54578298793664    0.63123540368754
C        -2.71341874893946   -1.34982091894384   -0.12647245014800
C        -2.88693117333201   -2.51831725534802    0.84916723342329
C        -3.94500842167917   -3.49858165516296    0.39744032134327
C        -3.64167787943939   -4.00686143434476   -1.00614294814868
C        -3.54559146395608   -2.83169109237112   -1.97210976049549
C        -2.43173691731464   -1.89840983110544   -1.51806464900309
C        -1.95425105215127    0.62141552920002    1.85851368851682
C        -2.64915696833256    1.76408101725066    1.12294461748168
C        -3.26738039695612    2.73814934217522    2.11874692163200
C        -2.18966161853131    3.29634990924042    3.03958071016380
C        -1.50624878849515    2.15790278866979    3.78751767085078
C        -0.88874463715802    1.17964509505949    2.79514842830279
Ir       -0.26753836887577   -2.50537342179162    1.14435580940099
H         3.91848832612135   -0.31265801786872   -1.34858313895288
H         5.24485888609293   -0.15038171148008   -0.19849000850167
H         4.25548070957147    1.25614905698529   -0.59128123792497
H         3.62910621395350    0.47238973661748    1.56692239829294
H         2.75782184324470   -3.20104953261869    1.65887827815434
H         1.41614358785003    0.48942722311149    1.38109214563532
H         0.14358083978838   -0.81203237319378   -2.35169072264123
H         0.54326936486510   -1.96833440441810   -1.05914640499733
H         1.97701485075929    0.04798749656873   -3.83787293325024
H         4.03404176329186   -0.60625125551123   -5.03333957494710
H         5.37424977132708   -2.52260715931871   -4.23128493314054
H         4.63021060973102   -3.80041024658631   -2.24959105032506
H         2.56197151443715   -3.14231044627779   -1.06397701686779
H         0.82406658770669    1.43299997287816   -2.26683677246519
H         2.46746328172433    1.33182278436656   -1.62348884632795
H        -0.68579351254739    3.02268780758970   -1.54615436792681
H        -1.21549251433562    5.00608575760506   -0.17172425827261
H         0.31475182632251    5.69100228598571    1.64692001971692
H         2.37859488415374    4.39536469177698    2.06644471198611
H         2.90925059303602    2.43620149176282    0.67807720932614
H        -3.61524617217946   -0.73874639385665   -0.14265374872039
H        -1.89094361963657   -3.09280685786484    0.90214499929127
H        -3.11589784494274   -2.14467613322911    1.84459622842914
H        -4.90216176052773   -2.97348977768483    0.38531658195332
H        -4.01078844402185   -4.33405980021565    1.09442543965172
H        -2.68422128877210   -4.53283754503723   -0.99217521500723
H        -4.42097023160718   -4.69723290798882   -1.32883004175508
H        -4.49223981482937   -2.28836745169467   -1.97618322967814
H        -3.34004860083795   -3.19328722792984   -2.97984469525333
H        -1.50184408931809   -2.47609611902479   -1.46808988300937
H        -2.29956185174590   -1.08122217713182   -2.22707802959511
H        -2.69365414964075    0.07168311092864    2.44260498424686
H        -1.91244504826685    2.29015365429368    0.51377941183407
H        -3.42442312380732    1.36646970157046    0.46814540926496
H        -4.01121653484719    2.20978764721814    2.71846616311272
H        -3.75853306519567    3.55065948606316    1.58260172176961
H        -1.44803093084082    3.82666996574036    2.43992897567475
H        -2.63264202477852    3.99545749740188    3.74929849394711
H        -0.73407816634677    2.55480682751212    4.44620398449406
H        -2.24862739047060    1.63106810460408    4.38968616072848
H        -0.13546595053333    1.69901738721475    2.19908366380500
H        -0.40500652183564    0.35970295852610    3.32818148138695
