32
CON(C)C(=O)C[C@@H](C)c1ccccc1 prod
C         3.73536182648277    0.25768832633629    0.72166685592737
O         2.49809303321687    0.93969944713643    0.63020496494948
N         2.01224494639515    0.83615171931038   -0.64876696305126
C         2.40687987318331    1.88418546510871   -1.54855031719518
C         1.09796682836615   -0.07594755304581   -0.94957198187829
O         0.55827199936762   -0.14111277851586   -2.04919002701803
C         0.75125617415318   -1.04611353415215    0.15724311305353
C        -0.66279886234778   -1.58686815349249   -0.07004988397647
C        -0.94489537593471   -2.74835710684145    0.87433188155605
C        -1.65645182110939   -0.46624753636326    0.09136115604091
C        -2.00174493762518    0.01895336509226    1.34557674853143
C        -2.90370345179627    1.06262084817694    1.47421862123045
C        -3.46397947518506    1.64018356134560    0.34646001382551
C        -3.10694234245383    1.18063320325102   -0.91146700444250
C        -2.20718555447617    0.13563875418467   -1.03375209727902
H         4.04697046518266    0.37021218707160    1.76153101744301
H         3.63427203347947   -0.80931063131216    0.49109694520415
H         4.49930774678687    0.69490880101314    0.06866062061241
H         2.02760777610834    1.64037470204096   -2.54350381536919
H         1.99187201008056    2.84282676904703   -1.22469705827147
H         3.49481211681127    1.95586727174092   -1.58296425141504
H         1.46229895852661   -1.87399826608362    0.14879897403726
H         0.81335595012245   -0.54672074088835    1.12570908305988
H        -0.71603023659848   -1.94828503398400   -1.10011384016729
H        -0.84051979755003   -2.41786563449138    1.90695415547507
H        -0.23153175015023   -3.55061674267440    0.69213393921967
H        -1.95512271346374   -3.12714130434509    0.72238764323611
H        -1.55990279505652   -0.42295950718006    2.23225044238175
H        -3.16994162525052    1.42856374819362    2.45976261080698
H        -4.17496934649452    2.45260880073328    0.44767657685575
H        -3.53182708001715    1.63931770710484   -1.79767428251014
H        -1.90302357275168   -0.21888915351671   -2.01355184087243
