20
C=C(CO)c1ccc(Cl)cc1 react
C        -2.05471875288926    1.27317795696638    0.57859234679074
C        -1.35643302617163    0.39220007312052   -0.12533848044154
C        -2.04041328926524   -0.48304348764821   -1.14075535666545
O        -2.09849047666705   -1.83091805113859   -0.71843466961111
C         0.09117637703009    0.19694080404903    0.06480098857329
C         0.67983219614156   -1.05052702036404   -0.14095794970619
C         2.03992534599504   -1.23275864302546    0.02800439267243
C         2.84120939370059   -0.16266044204713    0.39736125902329
Cl        4.55252639159310   -0.38637127255311    0.59938165338233
C         2.27373821351257    1.08577811968882    0.60230063416428
C         0.91177882601658    1.26006181158347    0.43910643257702
H        -1.60454880764127    1.89342367399797    1.34266331774058
H        -3.11614807643238    1.41029960542201    0.41504424820211
H        -1.46772032564072   -0.49245218988098   -2.07222922304464
H        -3.04451846456606   -0.08405794819003   -1.33905466451923
H        -2.52424851598705   -1.85097180426941    0.14313499090493
H         0.05735069207408   -1.89426897974541   -0.42007002787080
H         2.48049441837580   -2.21084627397291   -0.12910777007681
H         2.90038943203090    1.92394866177924    0.88600993156734
H         0.47881844879044    2.24304640622782    0.58954694633754
