33
CON(C)C(=O)/C=C(\C)c1ccc(C)cc1 react
C        -3.54892661098704    0.11643099426479   -1.93826470460813
O        -3.16774393196954    0.93713725735146   -0.84801983368193
N        -3.43945592854609    0.28207380732712    0.33197116901375
C        -4.75491058058358    0.52795554447859    0.86455395550832
C        -2.41811630119439    0.01379202416080    1.17748702673689
O        -2.65411317905546   -0.29004199707748    2.34254851837243
C        -1.08612344153658    0.04981081459288    0.57909468182578
C         0.07235996953280   -0.18518747230751    1.21240850044111
C         0.12993328310209   -0.57924802072305    2.66134757225202
C         1.36325151603145   -0.11945056011063    0.51373236772479
C         2.46978180148510   -0.82559170859327    0.99146450704709
C         3.68024451219767   -0.78636479793834    0.32706960503824
C         3.83044911987948   -0.03385644428469   -0.82993801439992
C         5.15531750226043    0.01303862758933   -1.53261052790002
C         2.74112872173374    0.68137250252535   -1.30644634414405
C         1.52687841104042    0.63859082437587   -0.64723166650986
H        -3.26522071887954    0.67836874673677   -2.82923147936870
H        -3.01848501969014   -0.84293445113115   -1.93391543987472
H        -4.62927894636036   -0.07009580818735   -1.96084978180204
H        -4.85504526302819    1.56267831674237    1.21017991242270
H        -4.91528242903645   -0.14997366788204    1.70456054715276
H        -5.49997056874813    0.33334755367320    0.09358730729469
H        -1.07472035052815    0.31258079164175   -0.47340894112521
H        -0.81375746497977   -0.35503317152731    3.15783204263623
H         0.93983804453899   -0.05295840678692    3.16437746283742
H         0.31682535260530   -1.64985108497872    2.73819380990580
H         2.37513473820016   -1.42973225677303    1.88554350661865
H         4.52576194661156   -1.34991653927206    0.70761790224361
H         5.81950276792765    0.71075463793112   -1.01846388461745
H         5.03140739496233    0.34527360263396   -2.56319639797623
H         5.62260122626795   -0.97219151274714   -1.52141199508653
H         2.84947789367729    1.27761915708269   -2.20687564609626
H         0.69125453306855    1.21159969721308   -1.03227573788143
