35
CON(C)C(=O)C[C@@H](C)c1ccc(C)cc1 prod
C         3.62227837628693    1.12107503385670    1.50039775314672
O         3.37468947392153   -0.17664805656767    0.99254681786031
N         3.41251710501007   -0.14838435217101   -0.38004531831324
C         4.70319590172794   -0.37251465957280   -0.97011776577162
C         2.28107293088470   -0.27741880672053   -1.06707483661824
O         2.25686149257133   -0.45230502592154   -2.27933086259382
C         1.01367847664794   -0.15055210176888   -0.25613724408735
C        -0.19657294126829   -0.50970459277128   -1.11757569329818
C        -0.18058532117529   -1.99795898589387   -1.46176255278640
C        -1.47440060737004   -0.13363175394112   -0.41933740502358
C        -1.78312176798092   -0.65864941820358    0.82927511666463
C        -2.94808552319461   -0.29141755944873    1.48062616700308
C        -3.82981805355996    0.60720807151880    0.89638055776277
C        -5.07314147869496    1.03755389091917    1.62034596751904
C        -3.53035387583187    1.12340585867296   -0.35557268548477
C        -2.36368737568110    0.75550927180308   -1.00555991673494
H         2.85622086275375    1.84065786167002    1.18776270572447
H         4.60854311653975    1.50039799874231    1.20933889895857
H         3.58924124857891    1.01093765855185    2.58532983216712
H         5.02889645854505   -1.40686528181439   -0.82042123502483
H         4.62931792046784   -0.16547822620991   -2.03990053206106
H         5.43275741927190    0.30129939960925   -0.51838261539789
H         0.91904407164891    0.87795066857809    0.09606415013892
H         1.06944969531484   -0.80380607413876    0.61564203951158
H        -0.12479760969133    0.05647421188640   -2.04916926272438
H         0.72076050036521   -2.23206509617800   -2.02749730264234
H        -1.05195407845099   -2.25083106255945   -2.06416171641729
H        -0.19521585636799   -2.58776303082961   -0.54619373893480
H        -1.10109673708545   -1.35967299965817    1.29961734211503
H        -3.17807952029499   -0.70490501866818    2.45726483269185
H        -4.85512231450919    1.92007394167151    2.22582005560283
H        -5.42293622763508    0.24488721900497    2.28135151556431
H        -5.85760471475605    1.29452281495968    0.90881170286102
H        -4.21641582074621    1.82129145614450   -0.82455680736322
H        -2.13553622624305    1.16732774544799   -1.98377896401395
